<instance format="XCSP3" type="CSP">
  <variables>
    <var id="x0"> 0 1 6 </var>
    <var id="x1"> 0 2 7 10 14 </var>
    <var id="x2"> 1 6 7 14 </var>
    <var id="x3"> 0 7 10 14 </var>
    <var id="x4"> 0 2 6 10 14 </var>
    <var id="x5"> 0 6 14 </var>
    <var id="x6"> 0 2 10 14 </var>
    <var id="x7"> 1 6 12 14 </var>
    <var id="x8"> 6 9 12 13 </var>
    <var id="x9"> 1 9 12..14 </var>
    <var id="x10"> 0 6 13 14 </var>
    <var id="x11"> 6 14 </var>
    <var id="x12"> 0 13 14 </var>
    <var id="x13"> 0 1 6 14 </var>
    <var id="x14"> 1 6 8 12 14 </var>
    <var id="x15"> 6 7 12 </var>
    <var id="x16"> 1 6 7 14 </var>
    <var id="x17"> 7 8 11 12 14 </var>
    <var id="x18"> 6 8 14 </var>
    <var id="x19"> 6 7 11 14 </var>
    <var id="x20"> 8 14 </var>
    <var id="x21"> 1 2 14 </var>
    <var id="x22"> 1 5 12 14 </var>
    <var id="x23"> 5 10 12..14 </var>
    <var id="x24"> 2 12 14 </var>
    <var id="x25"> 2 10 13 14 </var>
    <var id="x26"> 2 10 14 </var>
    <var id="x27"> 1 10 14 </var>
    <var id="x28"> 2 6 10 14 </var>
    <var id="x29"> 3 11 14 </var>
    <var id="x30"> 10 13 14 </var>
    <var id="x31"> 2 6 10 13 14 </var>
    <var id="x32"> 6 13 14 </var>
    <var as="x25" id="x33"/>
    <var id="x34"> 6 10 11 14 </var>
    <var id="x35"> 1 2 6 10 14 </var>
    <var id="x36"> 0 2 10 14 </var>
    <var id="x37"> 2 6 10 </var>
    <var id="x38"> 1 4 14 </var>
    <var id="x39"> 1 6 14 </var>
    <var id="x40"> 1 14 </var>
    <var id="x41"> 0 2 14 </var>
    <var id="x42"> 6 12 14 </var>
    <var id="x43"> 5..7 14 </var>
    <var id="x44"> 5 7 12 14 </var>
    <var id="x45"> 0 5 7 12 14 </var>
    <var id="x46"> 0 7 12 14 </var>
    <var id="x47"> 4 6 7 14 </var>
    <var id="x48"> 0 6 7 14 </var>
    <var id="x49"> 10 12 14 </var>
    <var id="x50"> 4 9 </var>
    <var id="x51"> 4 7 9 12..14 </var>
    <var id="x52"> 7 13 14 </var>
    <var id="x53"> 7 12 14 </var>
    <var id="x54"> 12..14 </var>
    <var id="x55"> 10 13 14 </var>
    <var id="x56"> 1 6 8 14 </var>
    <var id="x57"> 1 3 6 11 </var>
    <var id="x58"> 1 3 6 14 </var>
    <var id="x59"> 3 7 13 14 </var>
    <var id="x60"> 1 7 13 14 </var>
    <var id="x61"> 1 3 6 7 13 14 </var>
    <var id="x62"> 6 8 13 14 </var>
    <var id="x63"> 6 7 11 14 </var>
    <var id="x64"> 0 3 6 </var>
    <var id="x65"> 0 3 6 14 </var>
    <var id="x66"> 0 3 7 10 14 </var>
    <var id="x67"> 6 7 10 </var>
    <var id="x68"> 0 7 10 14 </var>
    <var id="x69"> 0 6 8 14 </var>
    <var id="x70"> 6 7 10 14 </var>
    <var id="x71"> 0 11 </var>
    <var id="x72"> 0 2 14 </var>
    <var id="x73"> 2 10 13 </var>
    <var id="x74"> 5 13 14 </var>
    <var id="x75"> 5 11 14 </var>
    <var id="x76"> 0 5 13 14 </var>
    <var id="x77"> 0 10 11 14 </var>
    <var id="x78"> 9 </var>
    <var id="x79"> 2 7 13 14 </var>
    <var id="x80"> 2 7 9 13 </var>
    <var id="x81"> 5 7 13 14 </var>
    <var id="x82"> 2 7 8 14 </var>
    <var id="x83"> 2 5 8 13 14 </var>
    <var id="x84"> 7 8 14 </var>
    <var id="x85"> 0 3 11 </var>
    <var id="x86"> 0 3 14 </var>
    <var id="x87"> 7 13 </var>
    <var id="x88"> 7 13 14 </var>
    <var id="x89"> 3 7 11 14 </var>
    <var id="x90"> 0 8 13 14 </var>
    <var id="x91"> 0 8 13 14 </var>
    <var id="x92"> 0..2 6 </var>
    <var id="x93"> 0 2 10 </var>
    <var id="x94"> 1 12 </var>
    <var id="x95"> 1 5 12 </var>
    <var id="x96"> 0 5 10 12 </var>
    <var id="x97"> 0 5 6 12 </var>
    <var id="x98"> 0 1 6 10 </var>
    <var id="x99"> 0 2..4 </var>
    <var id="x100"> 0 2 3 7 </var>
    <var id="x101"> 4 7 12 </var>
    <var id="x102"> 0 2 7 8 12 </var>
    <var id="x103"> 0 8 12 </var>
    <var id="x104"> 2 4 7 </var>
    <var id="x105"> 0 7 8 </var>
  </variables>
  <constraints>
    <group>
      <allDifferent> %... </allDifferent>
      <args> x0 x1 x2 x3 x4 x5 x6 </args>
      <args> x7 x8 x9 x10 x11 x12 x13 </args>
      <args> x14 x15 x16 x17 x18 x19 x20 </args>
      <args> x21 x22 x23 x24 x25 x26 x27 </args>
      <args> x28 x29 x30 x31 x32 x33 x34 </args>
      <args> x35 x36 x37 x38 x39 x40 x41 </args>
      <args> x42 x43 x44 x45 x46 x47 x48 </args>
      <args> x49 x50 x51 x52 x53 x54 x55 </args>
      <args> x56 x57 x58 x59 x60 x61 x62 x63 </args>
      <args> x64 x65 x66 x67 x68 x69 x70 </args>
      <args> x71 x72 x73 x74 x75 x76 x77 </args>
      <args> x78 x79 x80 x81 x82 x83 x84 </args>
      <args> x85 x86 x87 x88 x89 x90 x91 </args>
      <args> x92 x93 x94 x95 x96 x97 x98 </args>
      <args> x99 x100 x101 x102 x103 x104 x105 </args>
      <args> x7 x14 x28 x35 x42 x49 x56 </args>
      <args> x0 x50 x57 x64 x71 x78 x85 </args>
      <args> x21 x58 x65 x72 x86 x92 x99 </args>
      <args> x1 x36 x59 x66 x79 x93 x100 </args>
      <args> x8 x15 x37 x67 x73 x80 x87 </args>
      <args> x9 x38 x51 x60 x88 x94 x101 </args>
      <args> x2 x16 x39 x43 x52 x61 x74 </args>
      <args> x22 x29 x40 x44 x75 x89 x95 </args>
      <args> x3 x23 x30 x45 x68 x81 x96 </args>
      <args> x17 x24 x41 x46 x53 x82 x102 </args>
      <args> x4 x10 x18 x25 x31 x62 x90 </args>
      <args> x5 x32 x54 x69 x76 x97 x103 </args>
      <args> x11 x19 x26 x47 x63 x70 x104 </args>
      <args> x6 x12 x20 x33 x55 x83 x91 </args>
      <args> x13 x27 x34 x48 x77 x84 x98 x105 </args>
    </group>
  </constraints>
</instance>

